robust/generate/spp_dkp_Lefebvre_et_al_2026/src/shortest_path_11_4.lp
\ Model sp_11_4
\ LP format - for model browsing. Use MPS format to capture full model detail.
\ Signature: 0xb050d3b5baabe1c8
Minimize
  24.33 y[0,1] + 69.57 y[0,2] + 73.55 y[0,3] + 25.08 y[0,4] + 75.43 y[0,5]
   + 43.42 y[0,6] + 84.06 y[0,8] + 34.53 y[0,9] + 62.59 y[0,10]
   + 24.33 y[1,0] + 83.76 y[1,2] + 76.53 y[1,3] + 14.04 y[1,4]
   + 67.03 y[1,6] + 58.03 y[1,9] + 75.29 y[1,10] + 69.57 y[2,0]
   + 83.76 y[2,1] + 37.48 y[2,3] + 71.84 y[2,4] + 25.96 y[2,5] + 75 y[2,6]
   + 27.31 y[2,7] + 23.54 y[2,8] + 72.99 y[2,9] + 9.43 y[2,10]
   + 73.55 y[3,0] + 76.53 y[3,1] + 37.48 y[3,2] + 62.51 y[3,4]
   + 63.35 y[3,5] + 32.2 y[3,7] + 60.01 y[3,8] + 31.02 y[3,10]
   + 25.08 y[4,0] + 14.04 y[4,1] + 71.84 y[4,2] + 62.51 y[4,3]
   + 67.91 y[4,6] + 59.2 y[4,9] + 63.01 y[4,10] + 75.43 y[5,0]
   + 25.96 y[5,2] + 63.35 y[5,3] + 65.12 y[5,6] + 48.17 y[5,7]
   + 12.17 y[5,8] + 66.29 y[5,9] + 33.06 y[5,10] + 43.42 y[6,0]
   + 67.03 y[6,1] + 75 y[6,2] + 67.91 y[6,4] + 65.12 y[6,5] + 77.03 y[6,8]
   + 9 y[6,9] + 73.01 y[6,10] + 27.31 y[7,2] + 32.2 y[7,3] + 48.17 y[7,5]
   + 39.45 y[7,8] + 30.15 y[7,10] + 84.06 y[8,0] + 23.54 y[8,2]
   + 60.01 y[8,3] + 12.17 y[8,5] + 77.03 y[8,6] + 39.45 y[8,7]
   + 77.78 y[8,9] + 32.57 y[8,10] + 34.53 y[9,0] + 58.03 y[9,1]
   + 72.99 y[9,2] + 59.2 y[9,4] + 66.29 y[9,5] + 9 y[9,6] + 77.78 y[9,8]
   + 69.92 y[9,10] + 62.59 y[10,0] + 75.29 y[10,1] + 9.43 y[10,2]
   + 31.02 y[10,3] + 63.01 y[10,4] + 33.06 y[10,5] + 73.01 y[10,6]
   + 30.15 y[10,7] + 32.57 y[10,8] + 69.92 y[10,9] + 2.433 r[0,1]
   + 6.957 r[0,2] + 7.355 r[0,3] + 2.508 r[0,4] + 7.543 r[0,5]
   + 4.342 r[0,6] + 8.406 r[0,8] + 3.453 r[0,9] + 6.259 r[0,10]
   + 2.433 r[1,0] + 8.376 r[1,2] + 7.653 r[1,3] + 1.404 r[1,4]
   + 6.703 r[1,6] + 5.803 r[1,9] + 7.529 r[1,10] + 6.957 r[2,0]
   + 8.376 r[2,1] + 3.748 r[2,3] + 7.184 r[2,4] + 2.596 r[2,5] + 7.5 r[2,6]
   + 2.731 r[2,7] + 2.354 r[2,8] + 7.299 r[2,9] + 0.943 r[2,10]
   + 7.355 r[3,0] + 7.653 r[3,1] + 3.748 r[3,2] + 6.251 r[3,4]
   + 6.335 r[3,5] + 3.22 r[3,7] + 6.001 r[3,8] + 3.102 r[3,10]
   + 2.508 r[4,0] + 1.404 r[4,1] + 7.184 r[4,2] + 6.251 r[4,3]
   + 6.791 r[4,6] + 5.92 r[4,9] + 6.301 r[4,10] + 7.543 r[5,0]
   + 2.596 r[5,2] + 6.335 r[5,3] + 6.512 r[5,6] + 4.817 r[5,7]
   + 1.217 r[5,8] + 6.629 r[5,9] + 3.306 r[5,10] + 4.342 r[6,0]
   + 6.703 r[6,1] + 7.5 r[6,2] + 6.791 r[6,4] + 6.512 r[6,5] + 7.703 r[6,8]
   + 0.9 r[6,9] + 7.301 r[6,10] + 2.731 r[7,2] + 3.22 r[7,3] + 4.817 r[7,5]
   + 3.945 r[7,8] + 3.015 r[7,10] + 8.406 r[8,0] + 2.354 r[8,2]
   + 6.001 r[8,3] + 1.217 r[8,5] + 7.703 r[8,6] + 3.945 r[8,7]
   + 7.778 r[8,9] + 3.257 r[8,10] + 3.453 r[9,0] + 5.803 r[9,1]
   + 7.299 r[9,2] + 5.92 r[9,4] + 6.629 r[9,5] + 0.9 r[9,6] + 7.778 r[9,8]
   + 6.992 r[9,10] + 6.259 r[10,0] + 7.529 r[10,1] + 0.943 r[10,2]
   + 3.102 r[10,3] + 6.301 r[10,4] + 3.306 r[10,5] + 7.301 r[10,6]
   + 3.015 r[10,7] + 3.257 r[10,8] + 6.992 r[10,9]
Subject To
 flow_cons_inner_nodes[0]: - y[0,1] - y[0,2] - y[0,3] - y[0,4] - y[0,5]
   - y[0,6] - y[0,8] - y[0,9] - y[0,10] + y[1,0] + y[2,0] + y[3,0] + y[4,0]
   + y[5,0] + y[6,0] + y[8,0] + y[9,0] + y[10,0] = 0
 flow_cons_inner_nodes[1]: y[0,1] - y[1,0] - y[1,2] - y[1,3] - y[1,4]
   - y[1,6] - y[1,9] - y[1,10] + y[2,1] + y[3,1] + y[4,1] + y[6,1] + y[9,1]
   + y[10,1] = 0
 flow_cons_inner_nodes[2]: y[0,2] + y[1,2] - y[2,0] - y[2,1] - y[2,3]
   - y[2,4] - y[2,5] - y[2,6] - y[2,7] - y[2,8] - y[2,9] - y[2,10] + y[3,2]
   + y[4,2] + y[5,2] + y[6,2] + y[7,2] + y[8,2] + y[9,2] + y[10,2] = 0
 flow_cons_inner_nodes[3]: y[0,3] + y[1,3] + y[2,3] - y[3,0] - y[3,1]
   - y[3,2] - y[3,4] - y[3,5] - y[3,7] - y[3,8] - y[3,10] + y[4,3] + y[5,3]
   + y[7,3] + y[8,3] + y[10,3] = 0
 flow_cons_inner_nodes[4]: y[0,4] + y[1,4] + y[2,4] + y[3,4] - y[4,0]
   - y[4,1] - y[4,2] - y[4,3] - y[4,6] - y[4,9] - y[4,10] + y[6,4] + y[9,4]
   + y[10,4] = 0
 flow_cons_inner_nodes[5]: y[0,5] + y[2,5] + y[3,5] - y[5,0] - y[5,2]
   - y[5,3] - y[5,6] - y[5,7] - y[5,8] - y[5,9] - y[5,10] + y[6,5] + y[7,5]
   + y[8,5] + y[9,5] + y[10,5] = 0
 flow_cons_inner_nodes[8]: y[0,8] + y[2,8] + y[3,8] + y[5,8] + y[6,8]
   + y[7,8] - y[8,0] - y[8,2] - y[8,3] - y[8,5] - y[8,6] - y[8,7] - y[8,9]
   - y[8,10] + y[9,8] + y[10,8] = 0
 flow_cons_inner_nodes[9]: y[0,9] + y[1,9] + y[2,9] + y[4,9] + y[5,9]
   + y[6,9] + y[8,9] - y[9,0] - y[9,1] - y[9,2] - y[9,4] - y[9,5] - y[9,6]
   - y[9,8] - y[9,10] + y[10,9] = 0
 flow_cons_inner_nodes[10]: y[0,10] + y[1,10] + y[2,10] + y[3,10] + y[4,10]
   + y[5,10] + y[6,10] + y[7,10] + y[8,10] + y[9,10] - y[10,0] - y[10,1]
   - y[10,2] - y[10,3] - y[10,4] - y[10,5] - y[10,6] - y[10,7] - y[10,8]
   - y[10,9] = 0
 flow_cons_source: - y[0,6] - y[1,6] - y[2,6] - y[4,6] - y[5,6] + y[6,0]
   + y[6,1] + y[6,2] + y[6,4] + y[6,5] + y[6,8] + y[6,9] + y[6,10] - y[8,6]
   - y[9,6] - y[10,6] = 1
 flow_cons_target: y[2,7] + y[3,7] + y[5,7] - y[7,2] - y[7,3] - y[7,5]
   - y[7,8] - y[7,10] + y[8,7] + y[10,7] = 1
 primal_lower: - 3.94 y[0,1] - 3.19 y[0,2] - 1.25 y[0,3] - 3.81 y[0,4]
   - 1.57 y[0,5] - 4.71 y[0,6] - 0.22 y[0,8] - 2.21 y[0,9] - 4.58 y[0,10]
   - 2.29 y[1,0] - 2.55 y[1,2] - 0.43 y[1,3] - 2.14 y[1,4] - 3.75 y[1,6]
   - 4.36 y[1,9] - 1.63 y[1,10] - 0.52 y[2,0] - 4.03 y[2,1] - 1.98 y[2,3]
   - 3.15 y[2,4] - 0.18 y[2,5] - 1.51 y[2,6] - 0.24 y[2,7] - 1.87 y[2,8]
   - 1.32 y[2,9] - 4.98 y[2,10] - 1.98 y[3,0] - 1.54 y[3,1] - 1.11 y[3,2]
   - 2.48 y[3,4] - 0.29 y[3,5] - 1.46 y[3,7] - 1.18 y[3,8] - 4.84 y[3,10]
   - 3.09 y[4,0] - 4.33 y[4,1] - 0.45 y[4,2] - 0.75 y[4,3] - 3.38 y[4,6]
   - 4.92 y[4,9] - 0.12 y[4,10] - 4.56 y[5,0] - 0.29 y[5,2] - 3.8 y[5,3]
   - 0.32 y[5,6] - 1.28 y[5,7] - 0.85 y[5,8] - 0.98 y[5,9] - 0.54 y[5,10]
   - 2.62 y[6,0] - 0.03 y[6,1] - 3.97 y[6,2] - 0.7 y[6,4] - 0.54 y[6,5]
   - 2.16 y[6,8] - 1.1 y[6,9] - 4.2 y[6,10] - 0.03 y[7,2] - 0.74 y[7,3]
   - 3.51 y[7,5] - 0.74 y[7,8] - 4.37 y[7,10] - 2.58 y[8,0] - 2.13 y[8,2]
   - 0.1 y[8,3] - 2.48 y[8,5] - 4.75 y[8,6] - 1.74 y[8,7] - 2.05 y[8,9]
   - 4.16 y[8,10] - 3.59 y[9,0] - 2.44 y[9,1] - 1.17 y[9,2] - 3.38 y[9,4]
   - 2.91 y[9,5] - 2.25 y[9,6] - 2.9 y[9,8] - 1.56 y[9,10] - 3.28 y[10,0]
   - 0.46 y[10,1] - 1.84 y[10,2] - 2.87 y[10,3] - 4.07 y[10,4]
   - 2.34 y[10,5] - 3.14 y[10,6] - 2.8 y[10,7] - 1.67 y[10,8]
   - 0.69 y[10,9] + 14 u[0,1] + 72 u[0,2] + 54 u[0,3] + 85 u[0,4]
   + 84 u[0,5] + 58 u[0,6] + 77 u[0,8] + 22 u[0,9] + 82 u[0,10] + 96 u[1,0]
   + 48 u[1,2] + 75 u[1,3] + 83 u[1,4] + 12 u[1,6] + 6 u[1,9] + 90 u[1,10]
   + 15 u[2,0] + 61 u[2,1] + 12 u[2,3] + 57 u[2,4] + 42 u[2,5] + 65 u[2,6]
   + u[2,7] + 37 u[2,8] + 90 u[2,9] + 5 u[2,10] + 26 u[3,0] + 40 u[3,1]
   + 83 u[3,2] + 33 u[3,4] + 71 u[3,5] + 26 u[3,7] + 27 u[3,8] + 92 u[3,10]
   + 98 u[4,0] + 72 u[4,1] + 55 u[4,2] + 37 u[4,3] + 44 u[4,6] + 36 u[4,9]
   + 19 u[4,10] + 96 u[5,0] + 34 u[5,2] + 61 u[5,3] + 94 u[5,6] + 74 u[5,7]
   + 53 u[5,8] + 62 u[5,9] + 39 u[5,10] + 91 u[6,0] + 70 u[6,1] + 81 u[6,2]
   + 44 u[6,4] + 46 u[6,5] + 86 u[6,8] + 78 u[6,9] + 36 u[6,10]
   + 100 u[7,2] + 57 u[7,3] + 71 u[7,5] + 44 u[7,8] + 55 u[7,10]
   + 58 u[8,0] + 98 u[8,2] + 66 u[8,3] + 58 u[8,5] + 55 u[8,6] + 65 u[8,7]
   + 54 u[8,9] + 18 u[8,10] + 15 u[9,0] + 27 u[9,1] + 66 u[9,2] + 51 u[9,4]
   + 23 u[9,5] + 5 u[9,6] + 62 u[9,8] + 77 u[9,10] + 65 u[10,0]
   + 18 u[10,1] + 69 u[10,2] + 66 u[10,3] + 84 u[10,4] + 44 u[10,5]
   + 84 u[10,6] + 36 u[10,7] + 80 u[10,8] + 45 u[10,9] <= 442
 mccormick1[0,1]: - u[0,1] + r[0,1] <= 0
 mccormick1[0,2]: - u[0,2] + r[0,2] <= 0
 mccormick1[0,3]: - u[0,3] + r[0,3] <= 0
 mccormick1[0,4]: - u[0,4] + r[0,4] <= 0
 mccormick1[0,5]: - u[0,5] + r[0,5] <= 0
 mccormick1[0,6]: - u[0,6] + r[0,6] <= 0
 mccormick1[0,8]: - u[0,8] + r[0,8] <= 0
 mccormick1[0,9]: - u[0,9] + r[0,9] <= 0
 mccormick1[0,10]: - u[0,10] + r[0,10] <= 0
 mccormick1[1,0]: - u[1,0] + r[1,0] <= 0
 mccormick1[1,2]: - u[1,2] + r[1,2] <= 0
 mccormick1[1,3]: - u[1,3] + r[1,3] <= 0
 mccormick1[1,4]: - u[1,4] + r[1,4] <= 0
 mccormick1[1,6]: - u[1,6] + r[1,6] <= 0
 mccormick1[1,9]: - u[1,9] + r[1,9] <= 0
 mccormick1[1,10]: - u[1,10] + r[1,10] <= 0
 mccormick1[2,0]: - u[2,0] + r[2,0] <= 0
 mccormick1[2,1]: - u[2,1] + r[2,1] <= 0
 mccormick1[2,3]: - u[2,3] + r[2,3] <= 0
 mccormick1[2,4]: - u[2,4] + r[2,4] <= 0
 mccormick1[2,5]: - u[2,5] + r[2,5] <= 0
 mccormick1[2,6]: - u[2,6] + r[2,6] <= 0
 mccormick1[2,7]: - u[2,7] + r[2,7] <= 0
 mccormick1[2,8]: - u[2,8] + r[2,8] <= 0
 mccormick1[2,9]: - u[2,9] + r[2,9] <= 0
 mccormick1[2,10]: - u[2,10] + r[2,10] <= 0
 mccormick1[3,0]: - u[3,0] + r[3,0] <= 0
 mccormick1[3,1]: - u[3,1] + r[3,1] <= 0
 mccormick1[3,2]: - u[3,2] + r[3,2] <= 0
 mccormick1[3,4]: - u[3,4] + r[3,4] <= 0
 mccormick1[3,5]: - u[3,5] + r[3,5] <= 0
 mccormick1[3,7]: - u[3,7] + r[3,7] <= 0
 mccormick1[3,8]: - u[3,8] + r[3,8] <= 0
 mccormick1[3,10]: - u[3,10] + r[3,10] <= 0
 mccormick1[4,0]: - u[4,0] + r[4,0] <= 0
 mccormick1[4,1]: - u[4,1] + r[4,1] <= 0
 mccormick1[4,2]: - u[4,2] + r[4,2] <= 0
 mccormick1[4,3]: - u[4,3] + r[4,3] <= 0
 mccormick1[4,6]: - u[4,6] + r[4,6] <= 0
 mccormick1[4,9]: - u[4,9] + r[4,9] <= 0
 mccormick1[4,10]: - u[4,10] + r[4,10] <= 0
 mccormick1[5,0]: - u[5,0] + r[5,0] <= 0
 mccormick1[5,2]: - u[5,2] + r[5,2] <= 0
 mccormick1[5,3]: - u[5,3] + r[5,3] <= 0
 mccormick1[5,6]: - u[5,6] + r[5,6] <= 0
 mccormick1[5,7]: - u[5,7] + r[5,7] <= 0
 mccormick1[5,8]: - u[5,8] + r[5,8] <= 0
 mccormick1[5,9]: - u[5,9] + r[5,9] <= 0
 mccormick1[5,10]: - u[5,10] + r[5,10] <= 0
 mccormick1[6,0]: - u[6,0] + r[6,0] <= 0
 mccormick1[6,1]: - u[6,1] + r[6,1] <= 0
 mccormick1[6,2]: - u[6,2] + r[6,2] <= 0
 mccormick1[6,4]: - u[6,4] + r[6,4] <= 0
 mccormick1[6,5]: - u[6,5] + r[6,5] <= 0
 mccormick1[6,8]: - u[6,8] + r[6,8] <= 0
 mccormick1[6,9]: - u[6,9] + r[6,9] <= 0
 mccormick1[6,10]: - u[6,10] + r[6,10] <= 0
 mccormick1[7,2]: - u[7,2] + r[7,2] <= 0
 mccormick1[7,3]: - u[7,3] + r[7,3] <= 0
 mccormick1[7,5]: - u[7,5] + r[7,5] <= 0
 mccormick1[7,8]: - u[7,8] + r[7,8] <= 0
 mccormick1[7,10]: - u[7,10] + r[7,10] <= 0
 mccormick1[8,0]: - u[8,0] + r[8,0] <= 0
 mccormick1[8,2]: - u[8,2] + r[8,2] <= 0
 mccormick1[8,3]: - u[8,3] + r[8,3] <= 0
 mccormick1[8,5]: - u[8,5] + r[8,5] <= 0
 mccormick1[8,6]: - u[8,6] + r[8,6] <= 0
 mccormick1[8,7]: - u[8,7] + r[8,7] <= 0
 mccormick1[8,9]: - u[8,9] + r[8,9] <= 0
 mccormick1[8,10]: - u[8,10] + r[8,10] <= 0
 mccormick1[9,0]: - u[9,0] + r[9,0] <= 0
 mccormick1[9,1]: - u[9,1] + r[9,1] <= 0
 mccormick1[9,2]: - u[9,2] + r[9,2] <= 0
 mccormick1[9,4]: - u[9,4] + r[9,4] <= 0
 mccormick1[9,5]: - u[9,5] + r[9,5] <= 0
 mccormick1[9,6]: - u[9,6] + r[9,6] <= 0
 mccormick1[9,8]: - u[9,8] + r[9,8] <= 0
 mccormick1[9,10]: - u[9,10] + r[9,10] <= 0
 mccormick1[10,0]: - u[10,0] + r[10,0] <= 0
 mccormick1[10,1]: - u[10,1] + r[10,1] <= 0
 mccormick1[10,2]: - u[10,2] + r[10,2] <= 0
 mccormick1[10,3]: - u[10,3] + r[10,3] <= 0
 mccormick1[10,4]: - u[10,4] + r[10,4] <= 0
 mccormick1[10,5]: - u[10,5] + r[10,5] <= 0
 mccormick1[10,6]: - u[10,6] + r[10,6] <= 0
 mccormick1[10,7]: - u[10,7] + r[10,7] <= 0
 mccormick1[10,8]: - u[10,8] + r[10,8] <= 0
 mccormick1[10,9]: - u[10,9] + r[10,9] <= 0
 mccormick2[0,1]: - y[0,1] + r[0,1] <= 0
 mccormick2[0,2]: - y[0,2] + r[0,2] <= 0
 mccormick2[0,3]: - y[0,3] + r[0,3] <= 0
 mccormick2[0,4]: - y[0,4] + r[0,4] <= 0
 mccormick2[0,5]: - y[0,5] + r[0,5] <= 0
 mccormick2[0,6]: - y[0,6] + r[0,6] <= 0
 mccormick2[0,8]: - y[0,8] + r[0,8] <= 0
 mccormick2[0,9]: - y[0,9] + r[0,9] <= 0
 mccormick2[0,10]: - y[0,10] + r[0,10] <= 0
 mccormick2[1,0]: - y[1,0] + r[1,0] <= 0
 mccormick2[1,2]: - y[1,2] + r[1,2] <= 0
 mccormick2[1,3]: - y[1,3] + r[1,3] <= 0
 mccormick2[1,4]: - y[1,4] + r[1,4] <= 0
 mccormick2[1,6]: - y[1,6] + r[1,6] <= 0
 mccormick2[1,9]: - y[1,9] + r[1,9] <= 0
 mccormick2[1,10]: - y[1,10] + r[1,10] <= 0
 mccormick2[2,0]: - y[2,0] + r[2,0] <= 0
 mccormick2[2,1]: - y[2,1] + r[2,1] <= 0
 mccormick2[2,3]: - y[2,3] + r[2,3] <= 0
 mccormick2[2,4]: - y[2,4] + r[2,4] <= 0
 mccormick2[2,5]: - y[2,5] + r[2,5] <= 0
 mccormick2[2,6]: - y[2,6] + r[2,6] <= 0
 mccormick2[2,7]: - y[2,7] + r[2,7] <= 0
 mccormick2[2,8]: - y[2,8] + r[2,8] <= 0
 mccormick2[2,9]: - y[2,9] + r[2,9] <= 0
 mccormick2[2,10]: - y[2,10] + r[2,10] <= 0
 mccormick2[3,0]: - y[3,0] + r[3,0] <= 0
 mccormick2[3,1]: - y[3,1] + r[3,1] <= 0
 mccormick2[3,2]: - y[3,2] + r[3,2] <= 0
 mccormick2[3,4]: - y[3,4] + r[3,4] <= 0
 mccormick2[3,5]: - y[3,5] + r[3,5] <= 0
 mccormick2[3,7]: - y[3,7] + r[3,7] <= 0
 mccormick2[3,8]: - y[3,8] + r[3,8] <= 0
 mccormick2[3,10]: - y[3,10] + r[3,10] <= 0
 mccormick2[4,0]: - y[4,0] + r[4,0] <= 0
 mccormick2[4,1]: - y[4,1] + r[4,1] <= 0
 mccormick2[4,2]: - y[4,2] + r[4,2] <= 0
 mccormick2[4,3]: - y[4,3] + r[4,3] <= 0
 mccormick2[4,6]: - y[4,6] + r[4,6] <= 0
 mccormick2[4,9]: - y[4,9] + r[4,9] <= 0
 mccormick2[4,10]: - y[4,10] + r[4,10] <= 0
 mccormick2[5,0]: - y[5,0] + r[5,0] <= 0
 mccormick2[5,2]: - y[5,2] + r[5,2] <= 0
 mccormick2[5,3]: - y[5,3] + r[5,3] <= 0
 mccormick2[5,6]: - y[5,6] + r[5,6] <= 0
 mccormick2[5,7]: - y[5,7] + r[5,7] <= 0
 mccormick2[5,8]: - y[5,8] + r[5,8] <= 0
 mccormick2[5,9]: - y[5,9] + r[5,9] <= 0
 mccormick2[5,10]: - y[5,10] + r[5,10] <= 0
 mccormick2[6,0]: - y[6,0] + r[6,0] <= 0
 mccormick2[6,1]: - y[6,1] + r[6,1] <= 0
 mccormick2[6,2]: - y[6,2] + r[6,2] <= 0
 mccormick2[6,4]: - y[6,4] + r[6,4] <= 0
 mccormick2[6,5]: - y[6,5] + r[6,5] <= 0
 mccormick2[6,8]: - y[6,8] + r[6,8] <= 0
 mccormick2[6,9]: - y[6,9] + r[6,9] <= 0
 mccormick2[6,10]: - y[6,10] + r[6,10] <= 0
 mccormick2[7,2]: - y[7,2] + r[7,2] <= 0
 mccormick2[7,3]: - y[7,3] + r[7,3] <= 0
 mccormick2[7,5]: - y[7,5] + r[7,5] <= 0
 mccormick2[7,8]: - y[7,8] + r[7,8] <= 0
 mccormick2[7,10]: - y[7,10] + r[7,10] <= 0
 mccormick2[8,0]: - y[8,0] + r[8,0] <= 0
 mccormick2[8,2]: - y[8,2] + r[8,2] <= 0
 mccormick2[8,3]: - y[8,3] + r[8,3] <= 0
 mccormick2[8,5]: - y[8,5] + r[8,5] <= 0
 mccormick2[8,6]: - y[8,6] + r[8,6] <= 0
 mccormick2[8,7]: - y[8,7] + r[8,7] <= 0
 mccormick2[8,9]: - y[8,9] + r[8,9] <= 0
 mccormick2[8,10]: - y[8,10] + r[8,10] <= 0
 mccormick2[9,0]: - y[9,0] + r[9,0] <= 0
 mccormick2[9,1]: - y[9,1] + r[9,1] <= 0
 mccormick2[9,2]: - y[9,2] + r[9,2] <= 0
 mccormick2[9,4]: - y[9,4] + r[9,4] <= 0
 mccormick2[9,5]: - y[9,5] + r[9,5] <= 0
 mccormick2[9,6]: - y[9,6] + r[9,6] <= 0
 mccormick2[9,8]: - y[9,8] + r[9,8] <= 0
 mccormick2[9,10]: - y[9,10] + r[9,10] <= 0
 mccormick2[10,0]: - y[10,0] + r[10,0] <= 0
 mccormick2[10,1]: - y[10,1] + r[10,1] <= 0
 mccormick2[10,2]: - y[10,2] + r[10,2] <= 0
 mccormick2[10,3]: - y[10,3] + r[10,3] <= 0
 mccormick2[10,4]: - y[10,4] + r[10,4] <= 0
 mccormick2[10,5]: - y[10,5] + r[10,5] <= 0
 mccormick2[10,6]: - y[10,6] + r[10,6] <= 0
 mccormick2[10,7]: - y[10,7] + r[10,7] <= 0
 mccormick2[10,8]: - y[10,8] + r[10,8] <= 0
 mccormick2[10,9]: - y[10,9] + r[10,9] <= 0
 mccormick3[0,1]: - y[0,1] - u[0,1] + r[0,1] >= -1
 mccormick3[0,2]: - y[0,2] - u[0,2] + r[0,2] >= -1
 mccormick3[0,3]: - y[0,3] - u[0,3] + r[0,3] >= -1
 mccormick3[0,4]: - y[0,4] - u[0,4] + r[0,4] >= -1
 mccormick3[0,5]: - y[0,5] - u[0,5] + r[0,5] >= -1
 mccormick3[0,6]: - y[0,6] - u[0,6] + r[0,6] >= -1
 mccormick3[0,8]: - y[0,8] - u[0,8] + r[0,8] >= -1
 mccormick3[0,9]: - y[0,9] - u[0,9] + r[0,9] >= -1
 mccormick3[0,10]: - y[0,10] - u[0,10] + r[0,10] >= -1
 mccormick3[1,0]: - y[1,0] - u[1,0] + r[1,0] >= -1
 mccormick3[1,2]: - y[1,2] - u[1,2] + r[1,2] >= -1
 mccormick3[1,3]: - y[1,3] - u[1,3] + r[1,3] >= -1
 mccormick3[1,4]: - y[1,4] - u[1,4] + r[1,4] >= -1
 mccormick3[1,6]: - y[1,6] - u[1,6] + r[1,6] >= -1
 mccormick3[1,9]: - y[1,9] - u[1,9] + r[1,9] >= -1
 mccormick3[1,10]: - y[1,10] - u[1,10] + r[1,10] >= -1
 mccormick3[2,0]: - y[2,0] - u[2,0] + r[2,0] >= -1
 mccormick3[2,1]: - y[2,1] - u[2,1] + r[2,1] >= -1
 mccormick3[2,3]: - y[2,3] - u[2,3] + r[2,3] >= -1
 mccormick3[2,4]: - y[2,4] - u[2,4] + r[2,4] >= -1
 mccormick3[2,5]: - y[2,5] - u[2,5] + r[2,5] >= -1
 mccormick3[2,6]: - y[2,6] - u[2,6] + r[2,6] >= -1
 mccormick3[2,7]: - y[2,7] - u[2,7] + r[2,7] >= -1
 mccormick3[2,8]: - y[2,8] - u[2,8] + r[2,8] >= -1
 mccormick3[2,9]: - y[2,9] - u[2,9] + r[2,9] >= -1
 mccormick3[2,10]: - y[2,10] - u[2,10] + r[2,10] >= -1
 mccormick3[3,0]: - y[3,0] - u[3,0] + r[3,0] >= -1
 mccormick3[3,1]: - y[3,1] - u[3,1] + r[3,1] >= -1
 mccormick3[3,2]: - y[3,2] - u[3,2] + r[3,2] >= -1
 mccormick3[3,4]: - y[3,4] - u[3,4] + r[3,4] >= -1
 mccormick3[3,5]: - y[3,5] - u[3,5] + r[3,5] >= -1
 mccormick3[3,7]: - y[3,7] - u[3,7] + r[3,7] >= -1
 mccormick3[3,8]: - y[3,8] - u[3,8] + r[3,8] >= -1
 mccormick3[3,10]: - y[3,10] - u[3,10] + r[3,10] >= -1
 mccormick3[4,0]: - y[4,0] - u[4,0] + r[4,0] >= -1
 mccormick3[4,1]: - y[4,1] - u[4,1] + r[4,1] >= -1
 mccormick3[4,2]: - y[4,2] - u[4,2] + r[4,2] >= -1
 mccormick3[4,3]: - y[4,3] - u[4,3] + r[4,3] >= -1
 mccormick3[4,6]: - y[4,6] - u[4,6] + r[4,6] >= -1
 mccormick3[4,9]: - y[4,9] - u[4,9] + r[4,9] >= -1
 mccormick3[4,10]: - y[4,10] - u[4,10] + r[4,10] >= -1
 mccormick3[5,0]: - y[5,0] - u[5,0] + r[5,0] >= -1
 mccormick3[5,2]: - y[5,2] - u[5,2] + r[5,2] >= -1
 mccormick3[5,3]: - y[5,3] - u[5,3] + r[5,3] >= -1
 mccormick3[5,6]: - y[5,6] - u[5,6] + r[5,6] >= -1
 mccormick3[5,7]: - y[5,7] - u[5,7] + r[5,7] >= -1
 mccormick3[5,8]: - y[5,8] - u[5,8] + r[5,8] >= -1
 mccormick3[5,9]: - y[5,9] - u[5,9] + r[5,9] >= -1
 mccormick3[5,10]: - y[5,10] - u[5,10] + r[5,10] >= -1
 mccormick3[6,0]: - y[6,0] - u[6,0] + r[6,0] >= -1
 mccormick3[6,1]: - y[6,1] - u[6,1] + r[6,1] >= -1
 mccormick3[6,2]: - y[6,2] - u[6,2] + r[6,2] >= -1
 mccormick3[6,4]: - y[6,4] - u[6,4] + r[6,4] >= -1
 mccormick3[6,5]: - y[6,5] - u[6,5] + r[6,5] >= -1
 mccormick3[6,8]: - y[6,8] - u[6,8] + r[6,8] >= -1
 mccormick3[6,9]: - y[6,9] - u[6,9] + r[6,9] >= -1
 mccormick3[6,10]: - y[6,10] - u[6,10] + r[6,10] >= -1
 mccormick3[7,2]: - y[7,2] - u[7,2] + r[7,2] >= -1
 mccormick3[7,3]: - y[7,3] - u[7,3] + r[7,3] >= -1
 mccormick3[7,5]: - y[7,5] - u[7,5] + r[7,5] >= -1
 mccormick3[7,8]: - y[7,8] - u[7,8] + r[7,8] >= -1
 mccormick3[7,10]: - y[7,10] - u[7,10] + r[7,10] >= -1
 mccormick3[8,0]: - y[8,0] - u[8,0] + r[8,0] >= -1
 mccormick3[8,2]: - y[8,2] - u[8,2] + r[8,2] >= -1
 mccormick3[8,3]: - y[8,3] - u[8,3] + r[8,3] >= -1
 mccormick3[8,5]: - y[8,5] - u[8,5] + r[8,5] >= -1
 mccormick3[8,6]: - y[8,6] - u[8,6] + r[8,6] >= -1
 mccormick3[8,7]: - y[8,7] - u[8,7] + r[8,7] >= -1
 mccormick3[8,9]: - y[8,9] - u[8,9] + r[8,9] >= -1
 mccormick3[8,10]: - y[8,10] - u[8,10] + r[8,10] >= -1
 mccormick3[9,0]: - y[9,0] - u[9,0] + r[9,0] >= -1
 mccormick3[9,1]: - y[9,1] - u[9,1] + r[9,1] >= -1
 mccormick3[9,2]: - y[9,2] - u[9,2] + r[9,2] >= -1
 mccormick3[9,4]: - y[9,4] - u[9,4] + r[9,4] >= -1
 mccormick3[9,5]: - y[9,5] - u[9,5] + r[9,5] >= -1
 mccormick3[9,6]: - y[9,6] - u[9,6] + r[9,6] >= -1
 mccormick3[9,8]: - y[9,8] - u[9,8] + r[9,8] >= -1
 mccormick3[9,10]: - y[9,10] - u[9,10] + r[9,10] >= -1
 mccormick3[10,0]: - y[10,0] - u[10,0] + r[10,0] >= -1
 mccormick3[10,1]: - y[10,1] - u[10,1] + r[10,1] >= -1
 mccormick3[10,2]: - y[10,2] - u[10,2] + r[10,2] >= -1
 mccormick3[10,3]: - y[10,3] - u[10,3] + r[10,3] >= -1
 mccormick3[10,4]: - y[10,4] - u[10,4] + r[10,4] >= -1
 mccormick3[10,5]: - y[10,5] - u[10,5] + r[10,5] >= -1
 mccormick3[10,6]: - y[10,6] - u[10,6] + r[10,6] >= -1
 mccormick3[10,7]: - y[10,7] - u[10,7] + r[10,7] >= -1
 mccormick3[10,8]: - y[10,8] - u[10,8] + r[10,8] >= -1
 mccormick3[10,9]: - y[10,9] - u[10,9] + r[10,9] >= -1
Bounds
Binaries
 y[0,1] y[0,2] y[0,3] y[0,4] y[0,5] y[0,6] y[0,8] y[0,9] y[0,10] y[1,0]
 y[1,2] y[1,3] y[1,4] y[1,6] y[1,9] y[1,10] y[2,0] y[2,1] y[2,3] y[2,4]
 y[2,5] y[2,6] y[2,7] y[2,8] y[2,9] y[2,10] y[3,0] y[3,1] y[3,2] y[3,4]
 y[3,5] y[3,7] y[3,8] y[3,10] y[4,0] y[4,1] y[4,2] y[4,3] y[4,6] y[4,9]
 y[4,10] y[5,0] y[5,2] y[5,3] y[5,6] y[5,7] y[5,8] y[5,9] y[5,10] y[6,0]
 y[6,1] y[6,2] y[6,4] y[6,5] y[6,8] y[6,9] y[6,10] y[7,2] y[7,3] y[7,5]
 y[7,8] y[7,10] y[8,0] y[8,2] y[8,3] y[8,5] y[8,6] y[8,7] y[8,9] y[8,10]
 y[9,0] y[9,1] y[9,2] y[9,4] y[9,5] y[9,6] y[9,8] y[9,10] y[10,0] y[10,1]
 y[10,2] y[10,3] y[10,4] y[10,5] y[10,6] y[10,7] y[10,8] y[10,9] u[0,1]
 u[0,2] u[0,3] u[0,4] u[0,5] u[0,6] u[0,8] u[0,9] u[0,10] u[1,0] u[1,2]
 u[1,3] u[1,4] u[1,6] u[1,9] u[1,10] u[2,0] u[2,1] u[2,3] u[2,4] u[2,5]
 u[2,6] u[2,7] u[2,8] u[2,9] u[2,10] u[3,0] u[3,1] u[3,2] u[3,4] u[3,5]
 u[3,7] u[3,8] u[3,10] u[4,0] u[4,1] u[4,2] u[4,3] u[4,6] u[4,9] u[4,10]
 u[5,0] u[5,2] u[5,3] u[5,6] u[5,7] u[5,8] u[5,9] u[5,10] u[6,0] u[6,1]
 u[6,2] u[6,4] u[6,5] u[6,8] u[6,9] u[6,10] u[7,2] u[7,3] u[7,5] u[7,8]
 u[7,10] u[8,0] u[8,2] u[8,3] u[8,5] u[8,6] u[8,7] u[8,9] u[8,10] u[9,0]
 u[9,1] u[9,2] u[9,4] u[9,5] u[9,6] u[9,8] u[9,10] u[10,0] u[10,1] u[10,2]
 u[10,3] u[10,4] u[10,5] u[10,6] u[10,7] u[10,8] u[10,9] r[0,1] r[0,2]
 r[0,3] r[0,4] r[0,5] r[0,6] r[0,8] r[0,9] r[0,10] r[1,0] r[1,2] r[1,3]
 r[1,4] r[1,6] r[1,9] r[1,10] r[2,0] r[2,1] r[2,3] r[2,4] r[2,5] r[2,6]
 r[2,7] r[2,8] r[2,9] r[2,10] r[3,0] r[3,1] r[3,2] r[3,4] r[3,5] r[3,7]
 r[3,8] r[3,10] r[4,0] r[4,1] r[4,2] r[4,3] r[4,6] r[4,9] r[4,10] r[5,0]
 r[5,2] r[5,3] r[5,6] r[5,7] r[5,8] r[5,9] r[5,10] r[6,0] r[6,1] r[6,2]
 r[6,4] r[6,5] r[6,8] r[6,9] r[6,10] r[7,2] r[7,3] r[7,5] r[7,8] r[7,10]
 r[8,0] r[8,2] r[8,3] r[8,5] r[8,6] r[8,7] r[8,9] r[8,10] r[9,0] r[9,1]
 r[9,2] r[9,4] r[9,5] r[9,6] r[9,8] r[9,10] r[10,0] r[10,1] r[10,2] r[10,3]
 r[10,4] r[10,5] r[10,6] r[10,7] r[10,8] r[10,9]
End
